(declare-fun e () String)
(declare-fun c () String)
(declare-fun g () String)
(declare-fun b () String)
(declare-fun d () String)
(declare-fun f () String)
(assert (= (str.++ "c" d "c" c "e" d) (str.++ "bg" g "a" b "g")))
(assert (= (str.++ "db" f) g))
(assert (= (str.++ "g" b "de" c) e))

(check-sat)
